n_nodes = 20;
edges = [
	{2, 3, 5, 6, 7, 8, 12, 13},
	{4, 6, 9, 10, 13, 17},
	{4, 5, 7, 8, 12, 13},
	{6, 11, 12, 13, 14},
	{6, 7, 8, 11, 12, 13, 14, 18, 20},
	{7, 8, 11, 12, 13, 14, 15, 17, 18},
	{8, 11, 12, 13, 16, 18, 20},
	{11, 12, 13, 14, 20},
	{10, 14},
	{14},
	{12, 13, 14},
	{13, 14},
	{16, 17, 20, 14},
	{18},
	{16},
	{18},
	{18, 19, 20},
	{19, 20},
	{ },
	{ }
];